words_hard_train/8114.qaiger
aag 68 15 0 1 53
2
4
8
12
14
20
28
32
38
46
66
74
92
100
118
137
6 3 4
10 8 4
16 13 15
18 17 4
22 19 21
24 23 4
26 11 25
30 26 29
34 30 33
36 6 34
40 37 39
42 36 38
44 41 43
48 46 33
50 47 32
52 49 51
54 31 4
56 52 54
58 53 55
60 57 59
62 27 28
64 63 31
68 65 66
70 64 67
72 69 71
76 74 9
78 75 8
80 77 79
82 81 25
84 80 24
86 83 85
88 18 20
90 89 23
94 91 93
96 90 92
98 95 97
102 101 14
104 103 13
106 100 15
108 104 107
110 99 108
112 86 110
114 72 112
116 60 114
120 119 2
122 118 3
124 121 123
126 35 4
128 124 127
130 125 126
132 129 131
134 116 133
136 45 135
i0 2 y2[6]
i1 2 y2[7]
i2 2 y2[3]
i3 2 y2[0]
i4 2 y2[1]
i5 2 y2[2]
i6 2 y2[4]
i7 2 y2[5]
i8 1 x2[6]
i9 1 x2[4]
i10 1 x2[3]
i11 1 x2[2]
i12 1 x2[1]
i13 1 x2[0]
i14 1 x2[5]
o0 bv[0]
c
simplified
  >
    1
    xor
      abs
        2 y2
      add
        1 x2
        1 x2
