words_hard_train/8114.qaiger.qdimacs
p cnf 68 160
a 33 37 46 50 19 23 59 0
e 1 2 3 4 5 6 7 8 9 10 11 12 13 14 15 16 17 18 20 21 22 24 25 26 27 28 29 30 31 32 34 35 36 38 39 40 41 42 43 44 45 47 48 49 51 52 53 54 55 56 57 58 60 61 62 63 64 65 66 67 68 0
1 -2 3 0
-1 -3 0
2 -3 0
-4 -2 5 0
4 -5 0
2 -5 0
6 7 8 0
-6 -8 0
-7 -8 0
8 -2 9 0
-8 -9 0
2 -9 0
9 10 11 0
-9 -11 0
-10 -11 0
11 -2 12 0
-11 -12 0
2 -12 0
5 12 13 0
-5 -13 0
-12 -13 0
-13 14 15 0
13 -15 0
-14 -15 0
-15 16 17 0
15 -17 0
-16 -17 0
-3 -17 18 0
3 -18 0
17 -18 0
18 19 20 0
-18 -20 0
-19 -20 0
-18 -19 21 0
18 -21 0
19 -21 0
20 21 22 0
-20 -22 0
-21 -22 0
-23 16 24 0
23 -24 0
-16 -24 0
23 -16 25 0
-23 -25 0
16 -25 0
24 25 26 0
-24 -26 0
-25 -26 0
15 -2 27 0
-15 -27 0
2 -27 0
-26 -27 28 0
26 -28 0
27 -28 0
26 27 29 0
-26 -29 0
-27 -29 0
28 29 30 0
-28 -30 0
-29 -30 0
13 -14 31 0
-13 -31 0
14 -31 0
31 15 32 0
-31 -32 0
-15 -32 0
32 -33 34 0
-32 -34 0
33 -34 0
-32 33 35 0
32 -35 0
-33 -35 0
34 35 36 0
-34 -36 0
-35 -36 0
-37 4 38 0
37 -38 0
-4 -38 0
37 -4 39 0
-37 -39 0
4 -39 0
38 39 40 0
-38 -40 0
-39 -40 0
40 12 41 0
-40 -41 0
-12 -41 0
-40 -12 42 0
40 -42 0
12 -42 0
41 42 43 0
-41 -43 0
-42 -43 0
-9 -10 44 0
9 -44 0
10 -44 0
44 11 45 0
-44 -45 0
-11 -45 0
45 46 47 0
-45 -47 0
-46 -47 0
-45 -46 48 0
45 -48 0
46 -48 0
47 48 49 0
-47 -49 0
-48 -49 0
50 -7 51 0
-50 -51 0
7 -51 0
51 6 52 0
-51 -52 0
-6 -52 0
-50 7 53 0
50 -53 0
-7 -53 0
-52 53 54 0
52 -54 0
-53 -54 0
49 -54 55 0
-49 -55 0
54 -55 0
-43 -55 56 0
43 -56 0
55 -56 0
-36 -56 57 0
36 -57 0
56 -57 0
-30 -57 58 0
30 -58 0
57 -58 0
59 -1 60 0
-59 -60 0
1 -60 0
-59 1 61 0
59 -61 0
-1 -61 0
60 61 62 0
-60 -62 0
-61 -62 0
17 -2 63 0
-17 -63 0
2 -63 0
-62 63 64 0
62 -64 0
-63 -64 0
62 -63 65 0
-62 -65 0
63 -65 0
64 65 66 0
-64 -66 0
-65 -66 0
-58 66 67 0
58 -67 0
-66 -67 0
22 67 68 0
-22 -68 0
-67 -68 0
-68 0
